3932
3907
3955
3985
3861
3949
3876
3869
3967
3921
3923
3916
3922
3854
3963
3892
4038
3922
3849
3989
3817
3939
3904
3881
3863
3963
3877
3943
4011
3848
3987
3897
3829
3893
3891
3849
3997
3946
3847
3926
3969
3947
3903
3966
3998
3937
3984
3944
3916
3902
3846
4410
